p cnf 411 1197
c inputs: 1 2 3 4 5 6 7 8 9 10 11 12
c variables for gates: 13 ... 399
c outputs: 400 401 402 403 404 405 406 407 408 409 410 411
c random input: 1 -2 3 -4 -5 -6 -7 8 -9 -10 -11 -12
13 -2 -7 0
-13 2 0
-13 7 0
14 -1 -8 0
-14 1 0
-14 8 0
15 -13 14 0
-15 13 0
-15 -14 0
16 -14 13 0
-16 14 0
-16 -13 0
17 16 15 0
-17 -16 0
-17 -15 0
18 -2 -7 0
-18 2 0
-18 7 0
19 -1 -8 0
-19 1 0
-19 8 0
20 -18 -19 0
-20 18 0
-20 19 0
21 -3 -7 0
-21 3 0
-21 7 0
22 -2 -8 0
-22 2 0
-22 8 0
23 -22 -21 0
-23 22 0
-23 21 0
24 -3 -7 0
-24 3 0
-24 7 0
25 -24 -20 0
-25 24 0
-25 20 0
26 -2 -8 0
-26 2 0
-26 8 0
27 -26 -20 0
-27 26 0
-27 20 0
28 25 27 0
-28 -25 0
-28 -27 0
29 23 -28 0
-29 -23 0
-29 28 0
30 -3 -7 0
-30 3 0
-30 7 0
31 -2 -8 0
-31 2 0
-31 8 0
32 -31 20 0
-32 31 0
-32 -20 0
33 31 -20 0
-33 -31 0
-33 20 0
34 33 32 0
-34 -33 0
-34 -32 0
35 -30 -34 0
-35 30 0
-35 34 0
36 30 34 0
-36 -30 0
-36 -34 0
37 36 35 0
-37 -36 0
-37 -35 0
38 -4 -7 0
-38 4 0
-38 7 0
39 -3 -8 0
-39 3 0
-39 8 0
40 -38 -39 0
-40 38 0
-40 39 0
41 -4 -7 0
-41 4 0
-41 7 0
42 -41 29 0
-42 41 0
-42 -29 0
43 -3 -8 0
-43 3 0
-43 8 0
44 -43 29 0
-44 43 0
-44 -29 0
45 42 44 0
-45 -42 0
-45 -44 0
46 40 -45 0
-46 -40 0
-46 45 0
47 -4 -7 0
-47 4 0
-47 7 0
48 -3 -8 0
-48 3 0
-48 8 0
49 -48 -29 0
-49 48 0
-49 29 0
50 48 29 0
-50 -48 0
-50 -29 0
51 49 50 0
-51 -49 0
-51 -50 0
52 -47 -51 0
-52 47 0
-52 51 0
53 47 51 0
-53 -47 0
-53 -51 0
54 53 52 0
-54 -53 0
-54 -52 0
55 -5 -7 0
-55 5 0
-55 7 0
56 -4 -8 0
-56 4 0
-56 8 0
57 -56 -55 0
-57 56 0
-57 55 0
58 -5 -7 0
-58 5 0
-58 7 0
59 -58 46 0
-59 58 0
-59 -46 0
60 -4 -8 0
-60 4 0
-60 8 0
61 -60 46 0
-61 60 0
-61 -46 0
62 61 59 0
-62 -61 0
-62 -59 0
63 57 -62 0
-63 -57 0
-63 62 0
64 -5 -7 0
-64 5 0
-64 7 0
65 -4 -8 0
-65 4 0
-65 8 0
66 -65 -46 0
-66 65 0
-66 46 0
67 65 46 0
-67 -65 0
-67 -46 0
68 66 67 0
-68 -66 0
-68 -67 0
69 -64 -68 0
-69 64 0
-69 68 0
70 64 68 0
-70 -64 0
-70 -68 0
71 69 70 0
-71 -69 0
-71 -70 0
72 -6 -7 0
-72 6 0
-72 7 0
73 -5 -8 0
-73 5 0
-73 8 0
74 -72 -73 0
-74 72 0
-74 73 0
75 -6 -7 0
-75 6 0
-75 7 0
76 -75 63 0
-76 75 0
-76 -63 0
77 -5 -8 0
-77 5 0
-77 8 0
78 -77 63 0
-78 77 0
-78 -63 0
79 78 76 0
-79 -78 0
-79 -76 0
80 74 -79 0
-80 -74 0
-80 79 0
81 -6 -7 0
-81 6 0
-81 7 0
82 -5 -8 0
-82 5 0
-82 8 0
83 -82 -63 0
-83 82 0
-83 63 0
84 82 63 0
-84 -82 0
-84 -63 0
85 83 84 0
-85 -83 0
-85 -84 0
86 -81 -85 0
-86 81 0
-86 85 0
87 81 85 0
-87 -81 0
-87 -85 0
88 86 87 0
-88 -86 0
-88 -87 0
89 -6 -8 0
-89 6 0
-89 8 0
90 -89 80 0
-90 89 0
-90 -80 0
91 -6 -8 0
-91 6 0
-91 8 0
92 -91 -80 0
-92 91 0
-92 80 0
93 91 80 0
-93 -91 0
-93 -80 0
94 92 93 0
-94 -92 0
-94 -93 0
95 -1 -9 0
-95 1 0
-95 9 0
96 95 37 0
-96 -95 0
-96 -37 0
97 -95 -37 0
-97 95 0
-97 37 0
98 97 96 0
-98 -97 0
-98 -96 0
99 -1 -9 0
-99 1 0
-99 9 0
100 -99 37 0
-100 99 0
-100 -37 0
101 -2 -9 0
-101 2 0
-101 9 0
102 -101 54 0
-102 101 0
-102 -54 0
103 54 -100 0
-103 -54 0
-103 100 0
104 -2 -9 0
-104 2 0
-104 9 0
105 -104 -100 0
-105 104 0
-105 100 0
106 105 103 0
-106 -105 0
-106 -103 0
107 102 -106 0
-107 -102 0
-107 106 0
108 -2 -9 0
-108 2 0
-108 9 0
109 -108 100 0
-109 108 0
-109 -100 0
110 108 -100 0
-110 -108 0
-110 100 0
111 110 109 0
-111 -110 0
-111 -109 0
112 54 -111 0
-112 -54 0
-112 111 0
113 -54 111 0
-113 54 0
-113 -111 0
114 112 113 0
-114 -112 0
-114 -113 0
115 -3 -9 0
-115 3 0
-115 9 0
116 -115 71 0
-116 115 0
-116 -71 0
117 71 107 0
-117 -71 0
-117 -107 0
118 -3 -9 0
-118 3 0
-118 9 0
119 -118 107 0
-119 118 0
-119 -107 0
120 119 117 0
-120 -119 0
-120 -117 0
121 116 -120 0
-121 -116 0
-121 120 0
122 -3 -9 0
-122 3 0
-122 9 0
123 -122 -107 0
-123 122 0
-123 107 0
124 122 107 0
-124 -122 0
-124 -107 0
125 123 124 0
-125 -123 0
-125 -124 0
126 71 -125 0
-126 -71 0
-126 125 0
127 -71 125 0
-127 71 0
-127 -125 0
128 127 126 0
-128 -127 0
-128 -126 0
129 -4 -9 0
-129 4 0
-129 9 0
130 -129 88 0
-130 129 0
-130 -88 0
131 88 121 0
-131 -88 0
-131 -121 0
132 -4 -9 0
-132 4 0
-132 9 0
133 -132 121 0
-133 132 0
-133 -121 0
134 131 133 0
-134 -131 0
-134 -133 0
135 130 -134 0
-135 -130 0
-135 134 0
136 -4 -9 0
-136 4 0
-136 9 0
137 -136 -121 0
-137 136 0
-137 121 0
138 136 121 0
-138 -136 0
-138 -121 0
139 138 137 0
-139 -138 0
-139 -137 0
140 88 -139 0
-140 -88 0
-140 139 0
141 -88 139 0
-141 88 0
-141 -139 0
142 140 141 0
-142 -140 0
-142 -141 0
143 -5 -9 0
-143 5 0
-143 9 0
144 -143 94 0
-144 143 0
-144 -94 0
145 135 94 0
-145 -135 0
-145 -94 0
146 -5 -9 0
-146 5 0
-146 9 0
147 -146 135 0
-147 146 0
-147 -135 0
148 147 145 0
-148 -147 0
-148 -145 0
149 -148 144 0
-149 148 0
-149 -144 0
150 -5 -9 0
-150 5 0
-150 9 0
151 -150 -135 0
-151 150 0
-151 135 0
152 150 135 0
-152 -150 0
-152 -135 0
153 151 152 0
-153 -151 0
-153 -152 0
154 -153 94 0
-154 153 0
-154 -94 0
155 153 -94 0
-155 -153 0
-155 94 0
156 154 155 0
-156 -154 0
-156 -155 0
157 -6 -9 0
-157 6 0
-157 9 0
158 -157 -90 0
-158 157 0
-158 90 0
159 -90 149 0
-159 90 0
-159 -149 0
160 -6 -9 0
-160 6 0
-160 9 0
161 -160 149 0
-161 160 0
-161 -149 0
162 159 161 0
-162 -159 0
-162 -161 0
163 158 -162 0
-163 -158 0
-163 162 0
164 -6 -9 0
-164 6 0
-164 9 0
165 -164 -149 0
-165 164 0
-165 149 0
166 164 149 0
-166 -164 0
-166 -149 0
167 165 166 0
-167 -165 0
-167 -166 0
168 -90 -167 0
-168 90 0
-168 167 0
169 90 167 0
-169 -90 0
-169 -167 0
170 168 169 0
-170 -168 0
-170 -169 0
171 -1 -10 0
-171 1 0
-171 10 0
172 171 114 0
-172 -171 0
-172 -114 0
173 -171 -114 0
-173 171 0
-173 114 0
174 172 173 0
-174 -172 0
-174 -173 0
175 -1 -10 0
-175 1 0
-175 10 0
176 -175 114 0
-176 175 0
-176 -114 0
177 -2 -10 0
-177 2 0
-177 10 0
178 -177 128 0
-178 177 0
-178 -128 0
179 128 -176 0
-179 -128 0
-179 176 0
180 -2 -10 0
-180 2 0
-180 10 0
181 -180 -176 0
-181 180 0
-181 176 0
182 181 179 0
-182 -181 0
-182 -179 0
183 178 -182 0
-183 -178 0
-183 182 0
184 -2 -10 0
-184 2 0
-184 10 0
185 -184 176 0
-185 184 0
-185 -176 0
186 184 -176 0
-186 -184 0
-186 176 0
187 185 186 0
-187 -185 0
-187 -186 0
188 128 -187 0
-188 -128 0
-188 187 0
189 -128 187 0
-189 128 0
-189 -187 0
190 188 189 0
-190 -188 0
-190 -189 0
191 -3 -10 0
-191 3 0
-191 10 0
192 -191 142 0
-192 191 0
-192 -142 0
193 142 183 0
-193 -142 0
-193 -183 0
194 -3 -10 0
-194 3 0
-194 10 0
195 -194 183 0
-195 194 0
-195 -183 0
196 195 193 0
-196 -195 0
-196 -193 0
197 192 -196 0
-197 -192 0
-197 196 0
198 -3 -10 0
-198 3 0
-198 10 0
199 -198 -183 0
-199 198 0
-199 183 0
200 198 183 0
-200 -198 0
-200 -183 0
201 200 199 0
-201 -200 0
-201 -199 0
202 142 -201 0
-202 -142 0
-202 201 0
203 -142 201 0
-203 142 0
-203 -201 0
204 203 202 0
-204 -203 0
-204 -202 0
205 -4 -10 0
-205 4 0
-205 10 0
206 -205 156 0
-206 205 0
-206 -156 0
207 156 197 0
-207 -156 0
-207 -197 0
208 -4 -10 0
-208 4 0
-208 10 0
209 -208 197 0
-209 208 0
-209 -197 0
210 207 209 0
-210 -207 0
-210 -209 0
211 206 -210 0
-211 -206 0
-211 210 0
212 -4 -10 0
-212 4 0
-212 10 0
213 -212 -197 0
-213 212 0
-213 197 0
214 212 197 0
-214 -212 0
-214 -197 0
215 214 213 0
-215 -214 0
-215 -213 0
216 -215 156 0
-216 215 0
-216 -156 0
217 215 -156 0
-217 -215 0
-217 156 0
218 217 216 0
-218 -217 0
-218 -216 0
219 -5 -10 0
-219 5 0
-219 10 0
220 -219 170 0
-220 219 0
-220 -170 0
221 211 170 0
-221 -211 0
-221 -170 0
222 -5 -10 0
-222 5 0
-222 10 0
223 -222 211 0
-223 222 0
-223 -211 0
224 223 221 0
-224 -223 0
-224 -221 0
225 -224 220 0
-225 224 0
-225 -220 0
226 -5 -10 0
-226 5 0
-226 10 0
227 -226 -211 0
-227 226 0
-227 211 0
228 226 211 0
-228 -226 0
-228 -211 0
229 227 228 0
-229 -227 0
-229 -228 0
230 170 -229 0
-230 -170 0
-230 229 0
231 -170 229 0
-231 170 0
-231 -229 0
232 231 230 0
-232 -231 0
-232 -230 0
233 -6 -10 0
-233 6 0
-233 10 0
234 -233 163 0
-234 233 0
-234 -163 0
235 163 225 0
-235 -163 0
-235 -225 0
236 -6 -10 0
-236 6 0
-236 10 0
237 -236 225 0
-237 236 0
-237 -225 0
238 235 237 0
-238 -235 0
-238 -237 0
239 234 -238 0
-239 -234 0
-239 238 0
240 -6 -10 0
-240 6 0
-240 10 0
241 -240 -225 0
-241 240 0
-241 225 0
242 240 225 0
-242 -240 0
-242 -225 0
243 242 241 0
-243 -242 0
-243 -241 0
244 163 -243 0
-244 -163 0
-244 243 0
245 -163 243 0
-245 163 0
-245 -243 0
246 245 244 0
-246 -245 0
-246 -244 0
247 -1 -11 0
-247 1 0
-247 11 0
248 247 190 0
-248 -247 0
-248 -190 0
249 -247 -190 0
-249 247 0
-249 190 0
250 248 249 0
-250 -248 0
-250 -249 0
251 -1 -11 0
-251 1 0
-251 11 0
252 -251 190 0
-252 251 0
-252 -190 0
253 -2 -11 0
-253 2 0
-253 11 0
254 -253 204 0
-254 253 0
-254 -204 0
255 204 -252 0
-255 -204 0
-255 252 0
256 -2 -11 0
-256 2 0
-256 11 0
257 -256 -252 0
-257 256 0
-257 252 0
258 255 257 0
-258 -255 0
-258 -257 0
259 254 -258 0
-259 -254 0
-259 258 0
260 -2 -11 0
-260 2 0
-260 11 0
261 -260 252 0
-261 260 0
-261 -252 0
262 260 -252 0
-262 -260 0
-262 252 0
263 261 262 0
-263 -261 0
-263 -262 0
264 -263 204 0
-264 263 0
-264 -204 0
265 263 -204 0
-265 -263 0
-265 204 0
266 265 264 0
-266 -265 0
-266 -264 0
267 -3 -11 0
-267 3 0
-267 11 0
268 -267 218 0
-268 267 0
-268 -218 0
269 218 259 0
-269 -218 0
-269 -259 0
270 -3 -11 0
-270 3 0
-270 11 0
271 -270 259 0
-271 270 0
-271 -259 0
272 269 271 0
-272 -269 0
-272 -271 0
273 -272 268 0
-273 272 0
-273 -268 0
274 -3 -11 0
-274 3 0
-274 11 0
275 -274 -259 0
-275 274 0
-275 259 0
276 274 259 0
-276 -274 0
-276 -259 0
277 276 275 0
-277 -276 0
-277 -275 0
278 218 -277 0
-278 -218 0
-278 277 0
279 -218 277 0
-279 218 0
-279 -277 0
280 278 279 0
-280 -278 0
-280 -279 0
281 -4 -11 0
-281 4 0
-281 11 0
282 -281 232 0
-282 281 0
-282 -232 0
283 232 273 0
-283 -232 0
-283 -273 0
284 -4 -11 0
-284 4 0
-284 11 0
285 -284 273 0
-285 284 0
-285 -273 0
286 283 285 0
-286 -283 0
-286 -285 0
287 -286 282 0
-287 286 0
-287 -282 0
288 -4 -11 0
-288 4 0
-288 11 0
289 -288 -273 0
-289 288 0
-289 273 0
290 288 273 0
-290 -288 0
-290 -273 0
291 289 290 0
-291 -289 0
-291 -290 0
292 -291 232 0
-292 291 0
-292 -232 0
293 291 -232 0
-293 -291 0
-293 232 0
294 292 293 0
-294 -292 0
-294 -293 0
295 -5 -11 0
-295 5 0
-295 11 0
296 -295 246 0
-296 295 0
-296 -246 0
297 246 287 0
-297 -246 0
-297 -287 0
298 -5 -11 0
-298 5 0
-298 11 0
299 -298 287 0
-299 298 0
-299 -287 0
300 297 299 0
-300 -297 0
-300 -299 0
301 296 -300 0
-301 -296 0
-301 300 0
302 -5 -11 0
-302 5 0
-302 11 0
303 -302 -287 0
-303 302 0
-303 287 0
304 302 287 0
-304 -302 0
-304 -287 0
305 303 304 0
-305 -303 0
-305 -304 0
306 246 -305 0
-306 -246 0
-306 305 0
307 -246 305 0
-307 246 0
-307 -305 0
308 306 307 0
-308 -306 0
-308 -307 0
309 -6 -11 0
-309 6 0
-309 11 0
310 -309 239 0
-310 309 0
-310 -239 0
311 301 239 0
-311 -301 0
-311 -239 0
312 -6 -11 0
-312 6 0
-312 11 0
313 -312 301 0
-313 312 0
-313 -301 0
314 313 311 0
-314 -313 0
-314 -311 0
315 310 -314 0
-315 -310 0
-315 314 0
316 -6 -11 0
-316 6 0
-316 11 0
317 -316 -301 0
-317 316 0
-317 301 0
318 316 301 0
-318 -316 0
-318 -301 0
319 317 318 0
-319 -317 0
-319 -318 0
320 239 -319 0
-320 -239 0
-320 319 0
321 -239 319 0
-321 239 0
-321 -319 0
322 320 321 0
-322 -320 0
-322 -321 0
323 -1 -12 0
-323 1 0
-323 12 0
324 323 266 0
-324 -323 0
-324 -266 0
325 -323 -266 0
-325 323 0
-325 266 0
326 325 324 0
-326 -325 0
-326 -324 0
327 -1 -12 0
-327 1 0
-327 12 0
328 -327 266 0
-328 327 0
-328 -266 0
329 -2 -12 0
-329 2 0
-329 12 0
330 -329 280 0
-330 329 0
-330 -280 0
331 -328 280 0
-331 328 0
-331 -280 0
332 -2 -12 0
-332 2 0
-332 12 0
333 -332 -328 0
-333 332 0
-333 328 0
334 333 331 0
-334 -333 0
-334 -331 0
335 -334 330 0
-335 334 0
-335 -330 0
336 -2 -12 0
-336 2 0
-336 12 0
337 -336 328 0
-337 336 0
-337 -328 0
338 336 -328 0
-338 -336 0
-338 328 0
339 338 337 0
-339 -338 0
-339 -337 0
340 -339 280 0
-340 339 0
-340 -280 0
341 339 -280 0
-341 -339 0
-341 280 0
342 340 341 0
-342 -340 0
-342 -341 0
343 -3 -12 0
-343 3 0
-343 12 0
344 -343 294 0
-344 343 0
-344 -294 0
345 294 335 0
-345 -294 0
-345 -335 0
346 -3 -12 0
-346 3 0
-346 12 0
347 -346 335 0
-347 346 0
-347 -335 0
348 345 347 0
-348 -345 0
-348 -347 0
349 -348 344 0
-349 348 0
-349 -344 0
350 -3 -12 0
-350 3 0
-350 12 0
351 -350 -335 0
-351 350 0
-351 335 0
352 350 335 0
-352 -350 0
-352 -335 0
353 351 352 0
-353 -351 0
-353 -352 0
354 -353 294 0
-354 353 0
-354 -294 0
355 353 -294 0
-355 -353 0
-355 294 0
356 354 355 0
-356 -354 0
-356 -355 0
357 -4 -12 0
-357 4 0
-357 12 0
358 -357 308 0
-358 357 0
-358 -308 0
359 349 308 0
-359 -349 0
-359 -308 0
360 -4 -12 0
-360 4 0
-360 12 0
361 -360 349 0
-361 360 0
-361 -349 0
362 361 359 0
-362 -361 0
-362 -359 0
363 358 -362 0
-363 -358 0
-363 362 0
364 -4 -12 0
-364 4 0
-364 12 0
365 -364 -349 0
-365 364 0
-365 349 0
366 364 349 0
-366 -364 0
-366 -349 0
367 366 365 0
-367 -366 0
-367 -365 0
368 308 -367 0
-368 -308 0
-368 367 0
369 -308 367 0
-369 308 0
-369 -367 0
370 368 369 0
-370 -368 0
-370 -369 0
371 -5 -12 0
-371 5 0
-371 12 0
372 -371 322 0
-372 371 0
-372 -322 0
373 322 363 0
-373 -322 0
-373 -363 0
374 -5 -12 0
-374 5 0
-374 12 0
375 -374 363 0
-375 374 0
-375 -363 0
376 375 373 0
-376 -375 0
-376 -373 0
377 -376 372 0
-377 376 0
-377 -372 0
378 -5 -12 0
-378 5 0
-378 12 0
379 -378 -363 0
-379 378 0
-379 363 0
380 378 363 0
-380 -378 0
-380 -363 0
381 380 379 0
-381 -380 0
-381 -379 0
382 322 -381 0
-382 -322 0
-382 381 0
383 -322 381 0
-383 322 0
-383 -381 0
384 383 382 0
-384 -383 0
-384 -382 0
385 -6 -12 0
-385 6 0
-385 12 0
386 -385 315 0
-386 385 0
-386 -315 0
387 315 377 0
-387 -315 0
-387 -377 0
388 -6 -12 0
-388 6 0
-388 12 0
389 -388 377 0
-389 388 0
-389 -377 0
390 389 387 0
-390 -389 0
-390 -387 0
391 386 -390 0
-391 -386 0
-391 390 0
392 -6 -12 0
-392 6 0
-392 12 0
393 -392 -377 0
-393 392 0
-393 377 0
394 392 377 0
-394 -392 0
-394 -377 0
395 394 393 0
-395 -394 0
-395 -393 0
396 315 -395 0
-396 -315 0
-396 395 0
397 -315 395 0
-397 315 0
-397 -395 0
398 396 397 0
-398 -396 0
-398 -397 0
399 -1 -7 0
-399 1 0
-399 7 0
-400 399 0
400 -399 0
-401 -17 0
401 17 0
-402 -98 0
402 98 0
-403 -174 0
403 174 0
-404 -250 0
404 250 0
-405 -326 0
405 326 0
-406 -342 0
406 342 0
-407 -356 0
407 356 0
-408 -370 0
408 370 0
-409 -384 0
409 384 0
-410 -398 0
410 398 0
-411 -391 0
411 391 0
-400 0
401 0
-402 0
403 0
-404 0
-405 0
-406 0
-407 0
-408 0
-409 0
-410 0
-411 0
